p cnf 172 960
-1 -71 0
-1 -72 0
71 -71 0
72 -72 0
-15 -77 0
-15 -78 0
77 -77 0
78 -78 0
-29 -83 0
-29 -84 0
83 -83 0
84 -84 0
-43 -89 0
-43 -90 0
89 -89 0
90 -90 0
-57 -95 0
-57 -96 0
95 -95 0
96 -96 0
2 -71 0
2 -72 0
71 -71 0
72 -72 0
16 -77 0
16 -78 0
77 -77 0
78 -78 0
30 -83 0
30 -84 0
83 -83 0
84 -84 0
44 -89 0
44 -90 0
89 -89 0
90 -90 0
58 -95 0
58 -96 0
95 -95 0
96 -96 0
3 -71 0
3 -72 0
71 -71 0
72 -72 0
17 -77 0
17 -78 0
77 -77 0
78 -78 0
31 -83 0
31 -84 0
83 -83 0
84 -84 0
45 -89 0
45 -90 0
89 -89 0
90 -90 0
59 -95 0
59 -96 0
95 -95 0
96 -96 0
4 -101 -71 0
-4 101 -71 0
4 101 -72 0
-4 -101 -72 0
18 -101 -77 0
-18 101 -77 0
18 101 -78 0
-18 -101 -78 0
32 -101 -83 0
-32 101 -83 0
32 101 -84 0
-32 -101 -84 0
46 -101 -89 0
-46 101 -89 0
46 101 -90 0
-46 -101 -90 0
60 -101 -95 0
-60 101 -95 0
60 101 -96 0
-60 -101 -96 0
5 -71 0
5 -72 0
71 -71 0
72 -72 0
19 -77 0
19 -78 0
77 -77 0
78 -78 0
33 -83 0
33 -84 0
83 -83 0
84 -84 0
47 -89 0
47 -90 0
89 -89 0
90 -90 0
61 -95 0
61 -96 0
95 -95 0
96 -96 0
-6 -71 0
-6 -72 0
71 -71 0
72 -72 0
-20 -77 0
-20 -78 0
77 -77 0
78 -78 0
-34 -83 0
-34 -84 0
83 -83 0
84 -84 0
-48 -89 0
-48 -90 0
89 -89 0
90 -90 0
-62 -95 0
-62 -96 0
95 -95 0
96 -96 0
7 -71 0
7 -72 0
71 -71 0
72 -72 0
21 -77 0
21 -78 0
77 -77 0
78 -78 0
35 -83 0
35 -84 0
83 -83 0
84 -84 0
49 -89 0
49 -90 0
89 -89 0
90 -90 0
63 -95 0
63 -96 0
95 -95 0
96 -96 0
8 -102 -71 0
-8 102 -71 0
8 102 -72 0
-8 -102 -72 0
22 -102 -77 0
-22 102 -77 0
22 102 -78 0
-22 -102 -78 0
36 -102 -83 0
-36 102 -83 0
36 102 -84 0
-36 -102 -84 0
50 -102 -89 0
-50 102 -89 0
50 102 -90 0
-50 -102 -90 0
64 -102 -95 0
-64 102 -95 0
64 102 -96 0
-64 -102 -96 0
-9 -71 0
-9 -72 0
71 -71 0
72 -72 0
-23 -77 0
-23 -78 0
77 -77 0
78 -78 0
-37 -83 0
-37 -84 0
83 -83 0
84 -84 0
-51 -89 0
-51 -90 0
89 -89 0
90 -90 0
-65 -95 0
-65 -96 0
95 -95 0
96 -96 0
10 -103 -71 0
-10 103 -71 0
10 103 -72 0
-10 -103 -72 0
24 -103 -77 0
-24 103 -77 0
24 103 -78 0
-24 -103 -78 0
38 -103 -83 0
-38 103 -83 0
38 103 -84 0
-38 -103 -84 0
52 -103 -89 0
-52 103 -89 0
52 103 -90 0
-52 -103 -90 0
66 -103 -95 0
-66 103 -95 0
66 103 -96 0
-66 -103 -96 0
11 -104 -71 0
-11 104 -71 0
11 104 -72 0
-11 -104 -72 0
25 -104 -77 0
-25 104 -77 0
25 104 -78 0
-25 -104 -78 0
39 -104 -83 0
-39 104 -83 0
39 104 -84 0
-39 -104 -84 0
53 -104 -89 0
-53 104 -89 0
53 104 -90 0
-53 -104 -90 0
67 -104 -95 0
-67 104 -95 0
67 104 -96 0
-67 -104 -96 0
12 -71 0
12 -72 0
71 -71 0
72 -72 0
26 -77 0
26 -78 0
77 -77 0
78 -78 0
40 -83 0
40 -84 0
83 -83 0
84 -84 0
54 -89 0
54 -90 0
89 -89 0
90 -90 0
68 -95 0
68 -96 0
95 -95 0
96 -96 0
13 -105 -71 0
-13 105 -71 0
13 105 -72 0
-13 -105 -72 0
27 -105 -77 0
-27 105 -77 0
27 105 -78 0
-27 -105 -78 0
41 -105 -83 0
-41 105 -83 0
41 105 -84 0
-41 -105 -84 0
55 -105 -89 0
-55 105 -89 0
55 105 -90 0
-55 -105 -90 0
69 -105 -95 0
-69 105 -95 0
69 105 -96 0
-69 -105 -96 0
14 -106 -71 0
-14 106 -71 0
14 106 -72 0
-14 -106 -72 0
28 -106 -77 0
-28 106 -77 0
28 106 -78 0
-28 -106 -78 0
42 -106 -83 0
-42 106 -83 0
42 106 -84 0
-42 -106 -84 0
56 -106 -89 0
-56 106 -89 0
56 106 -90 0
-56 -106 -90 0
70 -106 -95 0
-70 106 -95 0
70 106 -96 0
-70 -106 -96 0
-143 71 0
143 -71 0
-144 72 0
143 -72 0
-143 -71 0
-144 -72 0
-149 71 143 0
149 -71 0
149 -143 0
-150 72 144 0
150 -72 0
150 -144 0
-149 -77 0
-150 -78 0
-155 77 149 0
155 -77 0
155 -149 0
-156 78 150 0
156 -78 0
156 -150 0
-155 -83 0
-156 -84 0
-161 83 155 0
161 -83 0
161 -155 0
-162 84 156 0
162 -84 0
162 -156 0
-161 -89 0
-162 -90 0
-167 89 161 0
167 -89 0
167 -161 0
-168 90 162 0
168 -90 0
168 -162 0
-167 -95 0
-168 -96 0
167 0
168 0
1 -107 -73 0
-1 107 -73 0
1 107 -74 0
-1 -107 -74 0
15 -107 -79 0
-15 107 -79 0
15 107 -80 0
-15 -107 -80 0
29 -107 -85 0
-29 107 -85 0
29 107 -86 0
-29 -107 -86 0
43 -107 -91 0
-43 107 -91 0
43 107 -92 0
-43 -107 -92 0
57 -107 -97 0
-57 107 -97 0
57 107 -98 0
-57 -107 -98 0
2 -73 0
2 -74 0
73 -73 0
74 -74 0
16 -79 0
16 -80 0
79 -79 0
80 -80 0
30 -85 0
30 -86 0
85 -85 0
86 -86 0
44 -91 0
44 -92 0
91 -91 0
92 -92 0
58 -97 0
58 -98 0
97 -97 0
98 -98 0
3 -73 0
3 -74 0
73 -73 0
74 -74 0
17 -79 0
17 -80 0
79 -79 0
80 -80 0
31 -85 0
31 -86 0
85 -85 0
86 -86 0
45 -91 0
45 -92 0
91 -91 0
92 -92 0
59 -97 0
59 -98 0
97 -97 0
98 -98 0
4 -73 0
4 -74 0
73 -73 0
74 -74 0
18 -79 0
18 -80 0
79 -79 0
80 -80 0
32 -85 0
32 -86 0
85 -85 0
86 -86 0
46 -91 0
46 -92 0
91 -91 0
92 -92 0
60 -97 0
60 -98 0
97 -97 0
98 -98 0
5 -108 -73 0
-5 108 -73 0
5 108 -74 0
-5 -108 -74 0
19 -108 -79 0
-19 108 -79 0
19 108 -80 0
-19 -108 -80 0
33 -108 -85 0
-33 108 -85 0
33 108 -86 0
-33 -108 -86 0
47 -108 -91 0
-47 108 -91 0
47 108 -92 0
-47 -108 -92 0
61 -108 -97 0
-61 108 -97 0
61 108 -98 0
-61 -108 -98 0
-6 -73 0
-6 -74 0
73 -73 0
74 -74 0
-20 -79 0
-20 -80 0
79 -79 0
80 -80 0
-34 -85 0
-34 -86 0
85 -85 0
86 -86 0
-48 -91 0
-48 -92 0
91 -91 0
92 -92 0
-62 -97 0
-62 -98 0
97 -97 0
98 -98 0
7 -109 -73 0
-7 109 -73 0
7 109 -74 0
-7 -109 -74 0
21 -109 -79 0
-21 109 -79 0
21 109 -80 0
-21 -109 -80 0
35 -109 -85 0
-35 109 -85 0
35 109 -86 0
-35 -109 -86 0
49 -109 -91 0
-49 109 -91 0
49 109 -92 0
-49 -109 -92 0
63 -109 -97 0
-63 109 -97 0
63 109 -98 0
-63 -109 -98 0
8 -73 0
8 -74 0
73 -73 0
74 -74 0
22 -79 0
22 -80 0
79 -79 0
80 -80 0
36 -85 0
36 -86 0
85 -85 0
86 -86 0
50 -91 0
50 -92 0
91 -91 0
92 -92 0
64 -97 0
64 -98 0
97 -97 0
98 -98 0
-9 -73 0
-9 -74 0
73 -73 0
74 -74 0
-23 -79 0
-23 -80 0
79 -79 0
80 -80 0
-37 -85 0
-37 -86 0
85 -85 0
86 -86 0
-51 -91 0
-51 -92 0
91 -91 0
92 -92 0
-65 -97 0
-65 -98 0
97 -97 0
98 -98 0
10 -110 -73 0
-10 110 -73 0
10 110 -74 0
-10 -110 -74 0
24 -110 -79 0
-24 110 -79 0
24 110 -80 0
-24 -110 -80 0
38 -110 -85 0
-38 110 -85 0
38 110 -86 0
-38 -110 -86 0
52 -110 -91 0
-52 110 -91 0
52 110 -92 0
-52 -110 -92 0
66 -110 -97 0
-66 110 -97 0
66 110 -98 0
-66 -110 -98 0
11 -73 0
11 -74 0
73 -73 0
74 -74 0
25 -79 0
25 -80 0
79 -79 0
80 -80 0
39 -85 0
39 -86 0
85 -85 0
86 -86 0
53 -91 0
53 -92 0
91 -91 0
92 -92 0
67 -97 0
67 -98 0
97 -97 0
98 -98 0
12 -73 0
12 -74 0
73 -73 0
74 -74 0
26 -79 0
26 -80 0
79 -79 0
80 -80 0
40 -85 0
40 -86 0
85 -85 0
86 -86 0
54 -91 0
54 -92 0
91 -91 0
92 -92 0
68 -97 0
68 -98 0
97 -97 0
98 -98 0
13 -73 0
13 -74 0
73 -73 0
74 -74 0
27 -79 0
27 -80 0
79 -79 0
80 -80 0
41 -85 0
41 -86 0
85 -85 0
86 -86 0
55 -91 0
55 -92 0
91 -91 0
92 -92 0
69 -97 0
69 -98 0
97 -97 0
98 -98 0
14 -73 0
14 -74 0
73 -73 0
74 -74 0
28 -79 0
28 -80 0
79 -79 0
80 -80 0
42 -85 0
42 -86 0
85 -85 0
86 -86 0
56 -91 0
56 -92 0
91 -91 0
92 -92 0
70 -97 0
70 -98 0
97 -97 0
98 -98 0
-145 73 0
145 -73 0
-146 74 0
145 -74 0
-145 -73 0
-146 -74 0
-151 73 145 0
151 -73 0
151 -145 0
-152 74 146 0
152 -74 0
152 -146 0
-151 -79 0
-152 -80 0
-157 79 151 0
157 -79 0
157 -151 0
-158 80 152 0
158 -80 0
158 -152 0
-157 -85 0
-158 -86 0
-163 85 157 0
163 -85 0
163 -157 0
-164 86 158 0
164 -86 0
164 -158 0
-163 -91 0
-164 -92 0
-169 91 163 0
169 -91 0
169 -163 0
-170 92 164 0
170 -92 0
170 -164 0
-169 -97 0
-170 -98 0
169 0
170 0
1 -75 0
1 -76 0
75 -75 0
76 -76 0
15 -81 0
15 -82 0
81 -81 0
82 -82 0
29 -87 0
29 -88 0
87 -87 0
88 -88 0
43 -93 0
43 -94 0
93 -93 0
94 -94 0
57 -99 0
57 -100 0
99 -99 0
100 -100 0
2 -75 0
2 -76 0
75 -75 0
76 -76 0
16 -81 0
16 -82 0
81 -81 0
82 -82 0
30 -87 0
30 -88 0
87 -87 0
88 -88 0
44 -93 0
44 -94 0
93 -93 0
94 -94 0
58 -99 0
58 -100 0
99 -99 0
100 -100 0
3 -75 0
3 -76 0
75 -75 0
76 -76 0
17 -81 0
17 -82 0
81 -81 0
82 -82 0
31 -87 0
31 -88 0
87 -87 0
88 -88 0
45 -93 0
45 -94 0
93 -93 0
94 -94 0
59 -99 0
59 -100 0
99 -99 0
100 -100 0
4 -111 -75 0
-4 111 -75 0
4 111 -76 0
-4 -111 -76 0
18 -111 -81 0
-18 111 -81 0
18 111 -82 0
-18 -111 -82 0
32 -111 -87 0
-32 111 -87 0
32 111 -88 0
-32 -111 -88 0
46 -111 -93 0
-46 111 -93 0
46 111 -94 0
-46 -111 -94 0
60 -111 -99 0
-60 111 -99 0
60 111 -100 0
-60 -111 -100 0
5 -112 -75 0
-5 112 -75 0
5 112 -76 0
-5 -112 -76 0
19 -112 -81 0
-19 112 -81 0
19 112 -82 0
-19 -112 -82 0
33 -112 -87 0
-33 112 -87 0
33 112 -88 0
-33 -112 -88 0
47 -112 -93 0
-47 112 -93 0
47 112 -94 0
-47 -112 -94 0
61 -112 -99 0
-61 112 -99 0
61 112 -100 0
-61 -112 -100 0
6 -113 -75 0
-6 113 -75 0
6 113 -76 0
-6 -113 -76 0
20 -113 -81 0
-20 113 -81 0
20 113 -82 0
-20 -113 -82 0
34 -113 -87 0
-34 113 -87 0
34 113 -88 0
-34 -113 -88 0
48 -113 -93 0
-48 113 -93 0
48 113 -94 0
-48 -113 -94 0
62 -113 -99 0
-62 113 -99 0
62 113 -100 0
-62 -113 -100 0
7 -114 -75 0
-7 114 -75 0
7 114 -76 0
-7 -114 -76 0
21 -114 -81 0
-21 114 -81 0
21 114 -82 0
-21 -114 -82 0
35 -114 -87 0
-35 114 -87 0
35 114 -88 0
-35 -114 -88 0
49 -114 -93 0
-49 114 -93 0
49 114 -94 0
-49 -114 -94 0
63 -114 -99 0
-63 114 -99 0
63 114 -100 0
-63 -114 -100 0
8 -115 -75 0
-8 115 -75 0
8 115 -76 0
-8 -115 -76 0
22 -115 -81 0
-22 115 -81 0
22 115 -82 0
-22 -115 -82 0
36 -115 -87 0
-36 115 -87 0
36 115 -88 0
-36 -115 -88 0
50 -115 -93 0
-50 115 -93 0
50 115 -94 0
-50 -115 -94 0
64 -115 -99 0
-64 115 -99 0
64 115 -100 0
-64 -115 -100 0
9 -116 -75 0
-9 116 -75 0
9 116 -76 0
-9 -116 -76 0
23 -116 -81 0
-23 116 -81 0
23 116 -82 0
-23 -116 -82 0
37 -116 -87 0
-37 116 -87 0
37 116 -88 0
-37 -116 -88 0
51 -116 -93 0
-51 116 -93 0
51 116 -94 0
-51 -116 -94 0
65 -116 -99 0
-65 116 -99 0
65 116 -100 0
-65 -116 -100 0
-10 -75 0
-10 -76 0
75 -75 0
76 -76 0
-24 -81 0
-24 -82 0
81 -81 0
82 -82 0
-38 -87 0
-38 -88 0
87 -87 0
88 -88 0
-52 -93 0
-52 -94 0
93 -93 0
94 -94 0
-66 -99 0
-66 -100 0
99 -99 0
100 -100 0
11 -75 0
11 -76 0
75 -75 0
76 -76 0
25 -81 0
25 -82 0
81 -81 0
82 -82 0
39 -87 0
39 -88 0
87 -87 0
88 -88 0
53 -93 0
53 -94 0
93 -93 0
94 -94 0
67 -99 0
67 -100 0
99 -99 0
100 -100 0
12 -75 0
12 -76 0
75 -75 0
76 -76 0
26 -81 0
26 -82 0
81 -81 0
82 -82 0
40 -87 0
40 -88 0
87 -87 0
88 -88 0
54 -93 0
54 -94 0
93 -93 0
94 -94 0
68 -99 0
68 -100 0
99 -99 0
100 -100 0
13 -75 0
13 -76 0
75 -75 0
76 -76 0
27 -81 0
27 -82 0
81 -81 0
82 -82 0
41 -87 0
41 -88 0
87 -87 0
88 -88 0
55 -93 0
55 -94 0
93 -93 0
94 -94 0
69 -99 0
69 -100 0
99 -99 0
100 -100 0
-14 -75 0
-14 -76 0
75 -75 0
76 -76 0
-28 -81 0
-28 -82 0
81 -81 0
82 -82 0
-42 -87 0
-42 -88 0
87 -87 0
88 -88 0
-56 -93 0
-56 -94 0
93 -93 0
94 -94 0
-70 -99 0
-70 -100 0
99 -99 0
100 -100 0
-147 75 0
147 -75 0
-148 76 0
147 -76 0
-147 -75 0
-148 -76 0
-153 75 147 0
153 -75 0
153 -147 0
-154 76 148 0
154 -76 0
154 -148 0
-153 -81 0
-154 -82 0
-159 81 153 0
159 -81 0
159 -153 0
-160 82 154 0
160 -82 0
160 -154 0
-159 -87 0
-160 -88 0
-165 87 159 0
165 -87 0
165 -159 0
-166 88 160 0
166 -88 0
166 -160 0
-165 -93 0
-166 -94 0
-171 93 165 0
171 -93 0
171 -165 0
-172 94 166 0
172 -94 0
172 -166 0
-171 -99 0
-172 -100 0
171 0
172 0
